Reading model...
...model read.
creating competitive generators file...
...competitive generators recorded.
Loading data...
.. real-time data read.
Compiling instance...
...instance created.
Creating Offer Mitigation (model will solve as dispatch if TRUE)...
...storage offer mitigation file created
Converting model to MPEC...
...converted
NOTE: initial MIP solve with only storage competitive to get feasible solution
Solving...

Welcome to IBM(R) ILOG(R) CPLEX(R) Interactive Optimizer 12.10.0.0
  with Simplex, Mixed Integer & Barrier Optimizers
5725-A06 5725-A29 5724-Y48 5724-Y49 5724-Y54 5724-Y55 5655-Y21
Copyright IBM Corp. 1988, 2019.  All Rights Reserved.

Type 'help' for a list of available commands.
Type 'help' followed by a command name for more
information on commands.

CPLEX> Logfile 'cplex.log' closed.
Logfile 'C:\Users\wenmi\Desktop\competitiveMPEC\logs\tmpuehtk5n3.cplex.log' open.
CPLEX> New value for parallel optimization mode: -1
CPLEX> New value for mixed integer optimality gap tolerance: 0.05
CPLEX> New value for feasibility tolerance: 1e-09
CPLEX> New value for deterministic time limit in ticks: 50000
CPLEX> Problem 'C:\Users\wenmi\Desktop\competitiveMPEC\logs\tmpvd1ma35p.pyomo.lp' read.
Read time = 0.31 sec. (28.09 ticks)
CPLEX> Problem name         : C:\Users\wenmi\Desktop\competitiveMPEC\logs\tmpvd1ma35p.pyomo.lp
Objective sense      : Maximize
Variables            :  107781  [Nneg: 1,  Box: 44056,  Free: 8928,
                                 Binary: 54796]
Objective nonzeros   :   17604
Linear constraints   :  246901  [Less: 82866,  Greater: 118424,  Equal: 45611]
  Nonzeros           :  618255
  RHS nonzeros       :  135061

Variables            : Min LB: -5000.000        Max UB: 1000000.       
Objective nonzeros   : Min   : 5.500000e-07     Max   : 208.3333       
Linear constraints   :
  Nonzeros           : Min   : 0.008333333      Max   : 1000000.       
  RHS nonzeros       : Min   : 5.500000e-07     Max   : 1000000.       
CPLEX> Version identifier: 12.10.0.0 | 2019-11-26 | 843d4de2ae
CPXPARAM_Parallel                                -1
CPXPARAM_Simplex_Tolerances_Feasibility          1.0000000000000001e-09
CPXPARAM_DetTimeLimit                            50000
CPXPARAM_MIP_Tolerances_MIPGap                   0.050000000000000003
Tried aggregator 3 times.
MIP Presolve eliminated 180509 rows and 40677 columns.
MIP Presolve added 6226 rows and 0 columns.
MIP Presolve modified 51096 coefficients.
Aggregator did 25914 substitutions.
Reduced MIP has 46704 rows, 39692 columns, and 154914 nonzeros.
Reduced MIP has 15648 binaries, 0 generals, 0 SOSs, and 0 indicators.
Presolve time = 0.36 sec. (370.10 ticks)
Probing fixed 792 vars, tightened 8586 bounds.
Probing time = 0.08 sec. (16.13 ticks)
Tried aggregator 2 times.
Detecting symmetries...
MIP Presolve eliminated 1778 rows and 1585 columns.
MIP Presolve modified 5523 coefficients.
Aggregator did 48 substitutions.
Reduced MIP has 44878 rows, 38059 columns, and 149624 nonzeros.
Reduced MIP has 14856 binaries, 0 generals, 0 SOSs, and 0 indicators.
Presolve time = 0.14 sec. (228.14 ticks)
Probing fixed 1 vars, tightened 430 bounds.
Probing time = 0.20 sec. (24.78 ticks)
Clique table members: 87357.
MIP emphasis: balance optimality and feasibility.
MIP search method: dynamic search.
Parallel mode: opportunistic, using up to 16 threads.
Root relaxation solution time = 0.63 sec. (1772.67 ticks)

        Nodes                                         Cuts/
   Node  Left     Objective  IInf  Best Integer    Best Bound    ItCnt     Gap

      0     0        0.0000     2                      0.0000     9241         
*     0+    0                            0.0000        0.0000             0.00%
      0     0        cutoff              0.0000        0.0000     9241    0.00%
Elapsed time = 1.83 sec. (2905.80 ticks, tree = 0.01 MB, solutions = 1)

Root node processing (before b&c):
  Real time             =    1.84 sec. (2909.69 ticks)
Parallel b&c, 16 threads:
  Real time             =    0.00 sec. (0.00 ticks)
  Sync time (average)   =    0.00 sec.
  Wait time (average)   =    0.00 sec.
                          ------------
Total (root+branch&cut) =    1.84 sec. (2909.69 ticks)

Solution pool: 1 solution saved.

MIP - Integer optimal solution:  Objective =  0.0000000000e+00
Solution time =    1.84 sec.  Iterations = 9241  Nodes = 0
Deterministic time = 2910.00 ticks  (1578.09 ticks/sec)

CPLEX> Incumbent solution written to file 'C:\Users\wenmi\Desktop\competitiveMPEC\logs\tmpy3fz19m0.cplex.sol'.
CPLEX> NOTE: no warmstart specified for MIP iteration, default behavior is true
NOTE: resolving with all competitive generators using storage-only solution to warmstart
Solving...

Welcome to IBM(R) ILOG(R) CPLEX(R) Interactive Optimizer 12.10.0.0
  with Simplex, Mixed Integer & Barrier Optimizers
5725-A06 5725-A29 5724-Y48 5724-Y49 5724-Y54 5724-Y55 5655-Y21
Copyright IBM Corp. 1988, 2019.  All Rights Reserved.

Type 'help' for a list of available commands.
Type 'help' followed by a command name for more
information on commands.

CPLEX> Logfile 'cplex.log' closed.
Logfile 'C:\Users\wenmi\Desktop\competitiveMPEC\logs\tmp5wu5zhqh.cplex.log' open.
CPLEX> New value for parallel optimization mode: -1
CPLEX> New value for mixed integer optimality gap tolerance: 0.05
CPLEX> New value for feasibility tolerance: 1e-09
CPLEX> New value for deterministic time limit in ticks: 50000
CPLEX> Problem 'C:\Users\wenmi\Desktop\competitiveMPEC\logs\tmpymwwli0p.pyomo.lp' read.
Read time = 0.33 sec. (28.13 ticks)
CPLEX> MIP start file 'C:\Users\wenmi\Desktop\competitiveMPEC\logs\tmpg3f3he8p.cplex.mst' read.
CPLEX> Problem name         : C:\Users\wenmi\Desktop\competitiveMPEC\logs\tmpymwwli0p.pyomo.lp
Objective sense      : Maximize
Variables            :  109221  [Nneg: 1,  Box: 45496,  Free: 8928,
                                 Binary: 54796]
Objective nonzeros   :   18996
Linear constraints   :  246901  [Less: 82866,  Greater: 118424,  Equal: 45611]
  Nonzeros           :  618255
  RHS nonzeros       :  135061

Variables            : Min LB: -5000.000        Max UB: 1000000.       
Objective nonzeros   : Min   : 5.500000e-07     Max   : 208.3333       
Linear constraints   :
  Nonzeros           : Min   : 0.008333333      Max   : 1000000.       
  RHS nonzeros       : Min   : 5.500000e-07     Max   : 1000000.       
CPLEX> Version identifier: 12.10.0.0 | 2019-11-26 | 843d4de2ae
CPXPARAM_Parallel                                -1
CPXPARAM_Simplex_Tolerances_Feasibility          1.0000000000000001e-09
CPXPARAM_DetTimeLimit                            50000
CPXPARAM_MIP_Tolerances_MIPGap                   0.050000000000000003
1 of 1 MIP starts provided solutions.
MIP start 'm1' defined initial solution with objective 0.0000.
Tried aggregator 3 times.
MIP Presolve eliminated 180509 rows and 42117 columns.
MIP Presolve added 6226 rows and 0 columns.
MIP Presolve modified 51096 coefficients.
Aggregator did 25914 substitutions.
Reduced MIP has 46704 rows, 39692 columns, and 154914 nonzeros.
Reduced MIP has 15648 binaries, 0 generals, 0 SOSs, and 0 indicators.
Presolve time = 0.36 sec. (370.81 ticks)
Probing fixed 792 vars, tightened 8586 bounds.
Probing time = 0.08 sec. (16.13 ticks)
Tried aggregator 2 times.
Detecting symmetries...
MIP Presolve eliminated 1778 rows and 1585 columns.
MIP Presolve modified 5523 coefficients.
Aggregator did 48 substitutions.
Reduced MIP has 44878 rows, 38059 columns, and 149624 nonzeros.
Reduced MIP has 14856 binaries, 0 generals, 0 SOSs, and 0 indicators.
Presolve time = 0.16 sec. (228.15 ticks)
Probing fixed 1 vars, tightened 427 bounds.
Probing time = 0.16 sec. (22.82 ticks)
Clique table members: 87225.
MIP emphasis: balance optimality and feasibility.
MIP search method: dynamic search.
Parallel mode: opportunistic, using up to 16 threads.
Root relaxation solution time = 0.72 sec. (1880.16 ticks)

        Nodes                                         Cuts/
   Node  Left     Objective  IInf  Best Integer    Best Bound    ItCnt     Gap

*     0+    0                            0.0000   1.03852e+07              --- 
      0     0    20682.4535   523        0.0000    20682.4535    10634     --- 
      0     0    18758.8192   523        0.0000     Cuts: 382    11208     --- 
      0     0    18758.8192   523        0.0000     Cuts: 478    11397     --- 
      0     0    18758.8192   523        0.0000     Cuts: 319    11485     --- 
      0     0    18758.8192   523        0.0000      Cuts: 83    11565     --- 
      0     2    18758.8192   189        0.0000    18758.8192    11565     --- 
Elapsed time = 5.97 sec. (6481.36 ticks, tree = 0.02 MB, solutions = 1)
    118    80    15827.5382   201        0.0000    18687.5357    14253     --- 
    245   115    13990.8237   172        0.0000    18687.5357    16273     --- 
    376   126     9791.9872    91        0.0000    18687.5357    16455     --- 
    523   200    10117.5718   137        0.0000    18687.5357    19131     --- 
    659   296     8251.2708    62        0.0000    18687.5357    21652     --- 
    808   350     5943.9682    48        0.0000    18687.5357    23639     --- 
    942   364        cutoff              0.0000    18687.5357    24293     --- 
   1073   414     2927.1640    19        0.0000    18687.5357    27986     --- 
   1175   430        cutoff              0.0000    18687.5357    31425     --- 
   1715   482      521.1411    20        0.0000    18262.3479    41596     --- 
Elapsed time = 20.19 sec. (9593.22 ticks, tree = 5.24 MB, solutions = 1)
   2456   586     1096.9377    30        0.0000    14393.7877    93938     --- 
   3271   586      392.6286     2        0.0000     4185.6675    93979     --- 
   3955   789      730.3145    27        0.0000     1498.6981   107813     --- 
   4678   967        cutoff              0.0000     1369.3506   114313     --- 
   5390  1083     1053.2401    25        0.0000      945.8625   121221     --- 
   6146   890    infeasible              0.0000      551.2420   136802     --- 
   6868  1038        cutoff              0.0000      411.8547   132482     --- 
   7568   752        cutoff              0.0000      391.5550   140322     --- 
   8098   491        cutoff              0.0000      334.2386   148113     --- 
   8423   326        cutoff              0.0000      328.0392   153553     --- 
Elapsed time = 57.72 sec. (19151.42 ticks, tree = 2.56 MB, solutions = 1)

Performing restart 1

Repeating presolve.
Tried aggregator 3 times.
MIP Presolve eliminated 1806 rows and 1525 columns.
MIP Presolve modified 88685 coefficients.
Aggregator did 463 substitutions.
Reduced MIP has 42609 rows, 36071 columns, and 120003 nonzeros.
Reduced MIP has 14190 binaries, 0 generals, 0 SOSs, and 0 indicators.
Presolve time = 0.17 sec. (175.54 ticks)
Tried aggregator 2 times.
MIP Presolve eliminated 887 rows and 744 columns.
MIP Presolve modified 21261 coefficients.
Aggregator did 4 substitutions.
Reduced MIP has 41718 rows, 35323 columns, and 117498 nonzeros.
Reduced MIP has 13818 binaries, 0 generals, 0 SOSs, and 0 indicators.
Presolve time = 0.06 sec. (71.13 ticks)
Tried aggregator 1 time.
MIP Presolve modified 19553 coefficients.
Reduced MIP has 41718 rows, 35323 columns, and 117498 nonzeros.
Reduced MIP has 13818 binaries, 0 generals, 0 SOSs, and 0 indicators.
Presolve time = 0.09 sec. (107.10 ticks)
Represolve time = 1.02 sec. (644.95 ticks)
   8455     0     1498.6981   242       -0.0000     Cuts: 597   165267     --- 
   8455     0        cutoff             -0.0000       -0.0000   165316    0.00%

GUB cover cuts applied:  1
Cover cuts applied:  26
Implied bound cuts applied:  76
Flow cuts applied:  213
Mixed integer rounding cuts applied:  89
Gomory fractional cuts applied:  31

Root node processing (before b&c):
  Real time             =    4.66 sec. (6344.72 ticks)
Parallel b&c, 16 threads:
  Real time             =   56.09 sec. (16632.38 ticks)
  Sync time (average)   =    0.43 sec.
  Wait time (average)   =    0.00 sec.
                          ------------
Total (root+branch&cut) =   60.75 sec. (22977.10 ticks)

Solution pool: 1 solution saved.

MIP - Integer optimal solution:  Objective =  0.0000000000e+00
Solution time =   60.77 sec.  Iterations = 165316  Nodes = 8455
Deterministic time = 22977.41 ticks  (378.13 ticks/sec)

CPLEX> Incumbent solution written to file 'C:\Users\wenmi\Desktop\competitiveMPEC\logs\tmppkinl_n5.cplex.sol'.
CPLEX> Exporting results... 
